NAME: test1690
TYPE: TSP
DIMENSION: 11
EDGE_WEIGHT_TYPE: EUC_2D
NODE_COORD_SECTION
1 19.85952929587245 76.6324012287421
2 55.50309982545212 80.85851006733787
3 3.0497355572909335 28.274265328429703
4 12.976100509761501 47.579962490185444
5 49.04697260675525 72.22751015063308
6 74.82766652726488 34.17262045459687
7 19.348426564217235 34.076383987469804
8 53.91948157771404 6.709591042447527
9 6.326154530603789 64.7092770120961
10 53.058839858327254 18.576962100469775
11 16.821390871982423 44.14382790237349
EOF
